20
0 1 0.84 0.46
0 2 0.62 0.39
0 3 0.94 0.42
0 4 0.28 0.2
0 5 0.88 0.34
0 6 0.64 0.13
0 7 0.68 0.21
0 8 0.76 0.43
0 9 0.86 0.4
0 10 0.56 0.35
0 11 0.6 0.28
0 12 0.64 0.32
0 13 0.58 0.33
0 14 0.71 0.34
0 15 0.54 0.25
0 16 0.52 0.2
0 17 0.76 0.25
0 18 0.74 0.44
0 19 0.64 0.26
1 2 0.38 0.32
1 3 0.83 0.36
1 4 0.8 0.26
1 5 0.7 0.16
1 6 0.78 0.36
1 7 0.47 0.31
1 8 0.53 0.39
1 9 0.75 0.37
1 10 0.66 0.26
1 11 0.71 0.24
1 12 0.56 0.28
1 13 0.56 0.38
1 14 0.64 0.3
1 15 0.74 0.24
1 16 0.46 0.27
1 17 0.63 0.36
1 18 0.76 0.4
1 19 0.45 0.21
2 3 0.45 0.44
2 4 0.9 0.27
2 5 0.7 0.36
2 6 0.65 0.26
2 7 0.5 0.18
2 8 0.75 0.32
2 9 0.39 0.26
2 10 0.6 0.34
2 11 0.56 0.25
2 12 0.57 0.29
2 13 0.75 0.38
2 14 0.72 0.3
2 15 0.48 0.3
2 16 0.5 0.4
2 17 0.78 0.26
2 18 0.69 0.31
2 19 0.48 0.42
3 4 0.66 0.47
3 5 0.57 0.2
3 6 0.92 0.42
3 7 0.8 0.44
3 8 0.44 0.41
3 9 0.58 0.36
3 10 0.6 0.28
3 11 0.46 0.37
3 12 0.61 0.41
3 13 0.49 0.33
3 14 0.53 0.3
3 15 0.48 0.3
3 16 0.46 0.36
3 17 0.4 0.18
3 18 0.24 0.2
3 19 0.5 0.3
4 5 0.78 0.36
4 6 0.76 0.17
4 7 0.4 0.09
4 8 0.48 0.38
4 9 0.71 0.41
4 10 0.72 0.25
4 11 0.42 0.16
4 12 0.36 0.2
4 13 0.84 0.31
4 14 0.7 0.23
4 15 0.7 0.29
4 16 0.56 0.28
4 17 0.76 0.29
4 18 0.76 0.3
4 19 0.6 0.34
5 6 0.85 0.35
5 7 0.4 0.27
5 8 0.62 0.23
5 9 0.46 0.29
5 10 0.56 0.29
5 11 0.46 0.2
5 12 0.61 0.24
5 13 0.9 0.4
5 14 0.52 0.38
5 15 0.68 0.32
5 16 0.63 0.43
5 17 0.54 0.22
5 18 0.66 0.3
5 19 0.62 0.37
6 7 0.51 0.08
6 8 0.64 0.3
6 9 0.51 0.3
6 10 0.64 0.22
6 11 0.68 0.15
6 12 0.81 0.19
6 13 0.47 0.2
6 14 0.46 0.21
6 15 0.64 0.12
6 16 0.74 0.33
6 17 0.6 0.24
6 18 0.82 0.31
6 19 0.55 0.33
7 8 0.64 0.38
7 9 0.48 0.32
7 10 0.5 0.16
7 11 0.44 0.07
7 12 0.3 0.11
7 13 0.62 0.22
7 14 0.3 0.14
7 15 0.62 0.2
7 16 0.7 0.31
7 17 0.54 0.26
7 18 0.76 0.24
7 19 0.62 0.25
8 9 0.44 0.43
8 10 0.4 0.28
8 11 0.7 0.37
8 12 0.76 0.4
8 13 0.71 0.35
8 14 0.58 0.27
8 15 0.28 0.18
8 16 0.42 0.31
8 17 0.76 0.3
8 18 0.68 0.37
8 19 0.58 0.34
9 10 0.42 0.21
9 11 0.29 0.28
9 12 0.44 0.32
9 13 0.79 0.31
9 14 0.7 0.23
9 15 0.32 0.3
9 16 0.6 0.2
9 17 0.78 0.18
9 18 0.77 0.33
9 19 0.55 0.16
10 11 0.3 0.09
10 12 0.45 0.13
10 13 0.66 0.19
10 14 0.58 0.19
10 15 0.12 0.1
10 16 0.75 0.33
10 17 0.36 0.1
10 18 0.67 0.24
10 19 0.56 0.27
11 12 0.15 0.04
11 13 0.89 0.2
11 14 0.46 0.21
11 15 0.42 0.19
11 16 0.45 0.24
11 17 0.61 0.19
11 18 0.48 0.31
11 19 0.26 0.18
12 13 0.74 0.24
12 14 0.6 0.25
12 15 0.57 0.23
12 16 0.6 0.28
12 17 0.46 0.23
12 18 0.52 0.35
12 19 0.41 0.22
13 14 0.56 0.08
13 15 0.6 0.17
13 16 0.55 0.4
13 17 0.52 0.29
13 18 0.73 0.18
13 19 0.7 0.34
14 15 0.51 0.09
14 16 0.46 0.34
14 17 0.76 0.21
14 18 0.65 0.1
14 19 0.63 0.28
15 16 0.7 0.31
15 17 0.48 0.12
15 18 0.55 0.19
15 19 0.68 0.33
16 17 0.62 0.27
16 18 0.3 0.28
16 19 0.19 0.06
17 18 0.64 0.31
17 19 0.66 0.21
18 19 0.49 0.34
